p edge 250 3156
e 0 13
e 0 20
e 0 23
e 0 27
e 0 76
e 0 85
e 0 104
e 0 114
e 0 116
e 0 119
e 0 121
e 0 136
e 0 146
e 0 162
e 0 174
e 0 184
e 0 212
e 0 218
e 0 227
e 0 229
e 0 245
e 1 6
e 1 13
e 1 29
e 1 44
e 1 51
e 1 65
e 1 68
e 1 81
e 1 90
e 1 96
e 1 112
e 1 114
e 1 130
e 1 131
e 1 134
e 1 150
e 1 151
e 1 153
e 1 159
e 1 170
e 1 174
e 1 179
e 1 187
e 1 192
e 1 239
e 1 247
e 2 9
e 2 11
e 2 29
e 2 30
e 2 32
e 2 55
e 2 78
e 2 81
e 2 93
e 2 115
e 2 117
e 2 120
e 2 127
e 2 144
e 2 157
e 2 185
e 2 187
e 2 198
e 2 206
e 2 210
e 2 221
e 2 229
e 3 6
e 3 7
e 3 14
e 3 16
e 3 19
e 3 31
e 3 33
e 3 46
e 3 75
e 3 80
e 3 92
e 3 110
e 3 114
e 3 128
e 3 131
e 3 137
e 3 141
e 3 144
e 3 158
e 3 185
e 3 199
e 3 200
e 3 213
e 3 215
e 3 219
e 3 225
e 4 11
e 4 16
e 4 26
e 4 36
e 4 37
e 4 38
e 4 68
e 4 72
e 4 103
e 4 123
e 4 163
e 4 179
e 4 180
e 4 189
e 4 190
e 4 204
e 4 205
e 4 210
e 4 223
e 4 227
e 4 240
e 5 44
e 5 48
e 5 54
e 5 73
e 5 81
e 5 86
e 5 89
e 5 90
e 5 92
e 5 99
e 5 107
e 5 131
e 5 138
e 5 152
e 5 160
e 5 165
e 5 168
e 5 170
e 5 182
e 5 204
e 5 205
e 5 209
e 5 221
e 5 236
e 6 41
e 6 47
e 6 52
e 6 78
e 6 79
e 6 91
e 6 93
e 6 104
e 6 114
e 6 123
e 6 126
e 6 135
e 6 152
e 6 161
e 6 178
e 6 183
e 6 184
e 6 189
e 6 193
e 6 200
e 6 221
e 6 226
e 6 227
e 6 237
e 6 248
e 6 249
e 7 22
e 7 55
e 7 71
e 7 80
e 7 93
e 7 118
e 7 152
e 7 156
e 7 173
e 7 177
e 7 184
e 7 213
e 7 217
e 7 223
e 7 232
e 7 242
e 7 243
e 7 247
e 8 22
e 8 24
e 8 34
e 8 45
e 8 48
e 8 63
e 8 70
e 8 72
e 8 83
e 8 91
e 8 92
e 8 99
e 8 101
e 8 103
e 8 104
e 8 112
e 8 127
e 8 167
e 8 180
e 8 191
e 8 196
e 8 197
e 8 199
e 8 204
e 8 214
e 8 217
e 8 240
e 8 245
e 9 42
e 9 50
e 9 64
e 9 65
e 9 67
e 9 71
e 9 79
e 9 80
e 9 90
e 9 95
e 9 98
e 9 101
e 9 106
e 9 107
e 9 110
e 9 114
e 9 136
e 9 153
e 9 162
e 9 172
e 9 173
e 9 189
e 9 193
e 9 196
e 9 198
e 9 209
e 9 228
e 9 232
e 9 235
e 10 17
e 10 35
e 10 57
e 10 96
e 10 104
e 10 105
e 10 108
e 10 111
e 10 129
e 10 131
e 10 135
e 10 156
e 10 159
e 10 169
e 10 179
e 10 206
e 10 210
e 10 211
e 10 213
e 10 223
e 10 224
e 10 227
e 10 245
e 11 16
e 11 22
e 11 45
e 11 50
e 11 55
e 11 60
e 11 68
e 11 71
e 11 78
e 11 96
e 11 117
e 11 122
e 11 125
e 11 126
e 11 132
e 11 133
e 11 142
e 11 187
e 11 195
e 11 216
e 11 222
e 11 223
e 11 228
e 12 34
e 12 44
e 12 62
e 12 66
e 12 75
e 12 76
e 12 78
e 12 93
e 12 104
e 12 128
e 12 149
e 12 150
e 12 178
e 12 197
e 12 208
e 12 218
e 12 226
e 12 229
e 12 248
e 13 33
e 13 36
e 13 39
e 13 44
e 13 49
e 13 62
e 13 66
e 13 68
e 13 75
e 13 85
e 13 88
e 13 94
e 13 96
e 13 111
e 13 144
e 13 150
e 13 155
e 13 159
e 13 161
e 13 166
e 13 180
e 13 185
e 13 199
e 13 201
e 13 209
e 13 230
e 13 233
e 13 245
e 13 248
e 14 15
e 14 17
e 14 23
e 14 44
e 14 49
e 14 55
e 14 71
e 14 74
e 14 99
e 14 116
e 14 135
e 14 161
e 14 170
e 14 172
e 14 186
e 14 189
e 14 191
e 14 201
e 14 205
e 14 206
e 14 225
e 14 236
e 14 243
e 15 19
e 15 39
e 15 51
e 15 88
e 15 97
e 15 121
e 15 132
e 15 185
e 15 186
e 15 194
e 15 213
e 15 236
e 15 240
e 16 35
e 16 41
e 16 44
e 16 48
e 16 68
e 16 77
e 16 93
e 16 94
e 16 106
e 16 129
e 16 134
e 16 153
e 16 158
e 16 171
e 16 184
e 16 192
e 16 209
e 16 212
e 16 227
e 17 21
e 17 31
e 17 40
e 17 74
e 17 79
e 17 83
e 17 87
e 17 92
e 17 99
e 17 103
e 17 109
e 17 117
e 17 123
e 17 141
e 17 174
e 17 182
e 17 212
e 17 232
e 17 236
e 17 238
e 18 21
e 18 28
e 18 42
e 18 55
e 18 56
e 18 65
e 18 71
e 18 75
e 18 84
e 18 92
e 18 95
e 18 115
e 18 125
e 18 128
e 18 134
e 18 136
e 18 143
e 18 145
e 18 149
e 18 154
e 18 158
e 18 161
e 18 172
e 18 180
e 18 188
e 18 212
e 18 218
e 18 229
e 19 23
e 19 31
e 19 72
e 19 80
e 19 85
e 19 94
e 19 104
e 19 115
e 19 125
e 19 137
e 19 139
e 19 161
e 19 180
e 19 193
e 19 212
e 19 222
e 19 226
e 19 228
e 19 231
e 19 234
e 20 25
e 20 53
e 20 56
e 20 68
e 20 72
e 20 80
e 20 85
e 20 100
e 20 110
e 20 131
e 20 142
e 20 146
e 20 150
e 20 155
e 20 180
e 20 182
e 20 205
e 20 206
e 20 210
e 20 212
e 20 234
e 21 27
e 21 42
e 21 43
e 21 47
e 21 48
e 21 51
e 21 52
e 21 59
e 21 60
e 21 70
e 21 90
e 21 94
e 21 111
e 21 115
e 21 118
e 21 126
e 21 153
e 21 167
e 21 171
e 21 176
e 21 180
e 21 187
e 21 197
e 21 202
e 21 213
e 21 229
e 21 238
e 21 249
e 22 24
e 22 26
e 22 48
e 22 49
e 22 51
e 22 65
e 22 67
e 22 68
e 22 100
e 22 119
e 22 136
e 22 159
e 22 164
e 22 168
e 22 170
e 22 179
e 22 189
e 22 196
e 22 198
e 22 207
e 22 210
e 22 219
e 22 220
e 22 222
e 22 223
e 22 232
e 22 235
e 23 47
e 23 48
e 23 63
e 23 65
e 23 66
e 23 71
e 23 80
e 23 90
e 23 92
e 23 93
e 23 95
e 23 96
e 23 104
e 23 109
e 23 135
e 23 145
e 23 151
e 23 156
e 23 167
e 23 174
e 23 181
e 23 182
e 23 183
e 23 186
e 23 187
e 23 191
e 23 192
e 23 197
e 23 198
e 23 205
e 23 245
e 23 246
e 24 34
e 24 54
e 24 73
e 24 82
e 24 86
e 24 88
e 24 106
e 24 115
e 24 130
e 24 131
e 24 134
e 24 142
e 24 158
e 24 168
e 24 176
e 24 188
e 24 198
e 24 209
e 24 214
e 24 218
e 24 248
e 25 49
e 25 84
e 25 106
e 25 114
e 25 123
e 25 151
e 25 153
e 25 155
e 25 158
e 25 164
e 25 168
e 25 172
e 25 174
e 25 177
e 25 183
e 25 196
e 25 212
e 25 215
e 25 220
e 25 222
e 25 224
e 26 27
e 26 32
e 26 42
e 26 60
e 26 79
e 26 90
e 26 93
e 26 97
e 26 98
e 26 103
e 26 105
e 26 110
e 26 154
e 26 168
e 26 174
e 26 206
e 26 210
e 26 211
e 27 39
e 27 43
e 27 45
e 27 60
e 27 64
e 27 66
e 27 70
e 27 74
e 27 90
e 27 100
e 27 105
e 27 108
e 27 112
e 27 113
e 27 136
e 27 143
e 27 148
e 27 156
e 27 162
e 27 164
e 27 170
e 27 171
e 27 178
e 27 185
e 27 197
e 27 230
e 27 244
e 27 247
e 28 41
e 28 45
e 28 48
e 28 65
e 28 66
e 28 73
e 28 82
e 28 95
e 28 107
e 28 119
e 28 122
e 28 137
e 28 146
e 28 190
e 28 203
e 28 210
e 28 221
e 28 222
e 28 226
e 28 227
e 28 235
e 28 238
e 28 245
e 29 31
e 29 35
e 29 37
e 29 40
e 29 41
e 29 62
e 29 69
e 29 76
e 29 89
e 29 109
e 29 113
e 29 126
e 29 147
e 29 154
e 29 157
e 29 163
e 29 169
e 29 173
e 29 203
e 29 208
e 29 210
e 29 217
e 29 222
e 29 231
e 30 32
e 30 36
e 30 46
e 30 49
e 30 51
e 30 63
e 30 65
e 30 77
e 30 93
e 30 98
e 30 103
e 30 112
e 30 122
e 30 127
e 30 131
e 30 135
e 30 142
e 30 154
e 30 184
e 30 186
e 30 187
e 30 189
e 30 199
e 30 215
e 30 217
e 30 241
e 31 35
e 31 37
e 31 46
e 31 55
e 31 58
e 31 72
e 31 83
e 31 94
e 31 95
e 31 98
e 31 115
e 31 132
e 31 142
e 31 145
e 31 157
e 31 159
e 31 160
e 31 161
e 31 196
e 31 221
e 31 225
e 31 234
e 31 237
e 32 39
e 32 42
e 32 49
e 32 53
e 32 56
e 32 66
e 32 72
e 32 76
e 32 96
e 32 100
e 32 105
e 32 126
e 32 145
e 32 151
e 32 152
e 32 154
e 32 176
e 32 197
e 32 201
e 32 217
e 32 219
e 32 232
e 32 244
e 33 43
e 33 49
e 33 65
e 33 84
e 33 94
e 33 106
e 33 116
e 33 128
e 33 139
e 33 156
e 33 159
e 33 160
e 33 169
e 33 193
e 33 198
e 33 217
e 33 220
e 33 223
e 33 225
e 33 230
e 33 231
e 33 241
e 33 248
e 34 38
e 34 50
e 34 51
e 34 58
e 34 83
e 34 90
e 34 102
e 34 104
e 34 106
e 34 111
e 34 118
e 34 122
e 34 132
e 34 133
e 34 136
e 34 138
e 34 147
e 34 152
e 34 161
e 34 169
e 34 170
e 34 176
e 34 180
e 34 186
e 34 187
e 34 237
e 35 39
e 35 67
e 35 76
e 35 87
e 35 96
e 35 97
e 35 110
e 35 123
e 35 129
e 35 137
e 35 177
e 35 179
e 35 186
e 35 198
e 35 200
e 35 206
e 35 213
e 35 218
e 35 233
e 35 238
e 35 248
e 36 64
e 36 66
e 36 68
e 36 84
e 36 85
e 36 87
e 36 111
e 36 115
e 36 126
e 36 130
e 36 134
e 36 154
e 36 159
e 36 166
e 36 168
e 36 194
e 36 198
e 36 217
e 36 232
e 36 239
e 36 245
e 36 248
e 37 47
e 37 55
e 37 62
e 37 82
e 37 96
e 37 110
e 37 146
e 37 148
e 37 168
e 37 170
e 37 171
e 37 175
e 37 177
e 37 180
e 37 187
e 37 195
e 37 197
e 37 209
e 37 219
e 37 230
e 37 231
e 37 240
e 37 249
e 38 46
e 38 49
e 38 50
e 38 53
e 38 54
e 38 69
e 38 79
e 38 85
e 38 90
e 38 91
e 38 94
e 38 95
e 38 97
e 38 112
e 38 122
e 38 126
e 38 137
e 38 138
e 38 149
e 38 154
e 38 168
e 38 173
e 38 198
e 38 201
e 38 204
e 38 208
e 38 214
e 38 222
e 39 54
e 39 70
e 39 117
e 39 128
e 39 130
e 39 138
e 39 140
e 39 147
e 39 164
e 39 179
e 39 181
e 39 184
e 39 185
e 39 195
e 39 205
e 39 208
e 39 211
e 39 215
e 39 218
e 39 227
e 39 242
e 39 243
e 39 247
e 40 60
e 40 69
e 40 88
e 40 108
e 40 122
e 40 127
e 40 132
e 40 139
e 40 142
e 40 147
e 40 153
e 40 164
e 40 165
e 40 170
e 40 188
e 40 219
e 40 227
e 40 228
e 40 231
e 40 234
e 40 236
e 40 248
e 41 61
e 41 63
e 41 77
e 41 120
e 41 162
e 41 167
e 41 169
e 41 171
e 41 174
e 41 179
e 41 182
e 41 196
e 41 236
e 41 245
e 42 49
e 42 50
e 42 51
e 42 83
e 42 86
e 42 88
e 42 92
e 42 95
e 42 101
e 42 109
e 42 112
e 42 117
e 42 119
e 42 123
e 42 130
e 42 143
e 42 156
e 42 169
e 42 186
e 42 192
e 42 198
e 42 200
e 42 206
e 42 217
e 42 233
e 42 240
e 43 44
e 43 47
e 43 48
e 43 54
e 43 57
e 43 62
e 43 68
e 43 84
e 43 98
e 43 107
e 43 111
e 43 120
e 43 123
e 43 131
e 43 132
e 43 137
e 43 138
e 43 144
e 43 153
e 43 162
e 43 164
e 43 166
e 43 200
e 43 202
e 43 224
e 43 232
e 43 243
e 44 45
e 44 72
e 44 75
e 44 94
e 44 98
e 44 102
e 44 106
e 44 114
e 44 117
e 44 144
e 44 145
e 44 150
e 44 151
e 44 157
e 44 168
e 44 192
e 44 195
e 44 206
e 44 215
e 44 230
e 44 233
e 44 235
e 44 236
e 44 242
e 45 47
e 45 62
e 45 81
e 45 99
e 45 101
e 45 102
e 45 109
e 45 122
e 45 124
e 45 142
e 45 162
e 45 202
e 45 209
e 45 216
e 45 220
e 46 48
e 46 58
e 46 60
e 46 82
e 46 83
e 46 85
e 46 95
e 46 101
e 46 103
e 46 130
e 46 131
e 46 144
e 46 146
e 46 158
e 46 164
e 46 170
e 46 181
e 46 185
e 46 194
e 46 199
e 46 210
e 46 213
e 46 220
e 46 221
e 46 230
e 46 231
e 46 241
e 46 246
e 47 56
e 47 63
e 47 64
e 47 65
e 47 90
e 47 139
e 47 147
e 47 156
e 47 167
e 47 170
e 47 177
e 47 207
e 47 210
e 47 222
e 48 68
e 48 77
e 48 94
e 48 124
e 48 126
e 48 128
e 48 130
e 48 144
e 48 163
e 48 168
e 48 172
e 48 178
e 48 207
e 48 211
e 48 213
e 48 223
e 48 234
e 49 77
e 49 82
e 49 86
e 49 88
e 49 93
e 49 100
e 49 107
e 49 111
e 49 117
e 49 120
e 49 134
e 49 137
e 49 149
e 49 161
e 49 184
e 49 196
e 49 203
e 49 222
e 49 229
e 49 234
e 49 237
e 50 62
e 50 77
e 50 79
e 50 83
e 50 89
e 50 103
e 50 105
e 50 106
e 50 116
e 50 133
e 50 145
e 50 154
e 50 159
e 50 167
e 50 171
e 50 178
e 50 185
e 50 193
e 50 195
e 50 197
e 50 199
e 50 202
e 50 207
e 50 217
e 50 224
e 50 225
e 50 232
e 50 237
e 50 239
e 51 55
e 51 73
e 51 80
e 51 81
e 51 88
e 51 92
e 51 102
e 51 104
e 51 127
e 51 129
e 51 131
e 51 136
e 51 138
e 51 148
e 51 157
e 51 194
e 51 196
e 51 199
e 51 228
e 51 229
e 51 243
e 51 246
e 52 69
e 52 77
e 52 79
e 52 81
e 52 84
e 52 98
e 52 100
e 52 103
e 52 104
e 52 118
e 52 126
e 52 146
e 52 150
e 52 162
e 52 175
e 52 193
e 52 208
e 52 221
e 53 60
e 53 64
e 53 87
e 53 89
e 53 106
e 53 117
e 53 123
e 53 140
e 53 151
e 53 152
e 53 164
e 53 167
e 53 175
e 53 181
e 53 195
e 53 234
e 53 235
e 54 63
e 54 68
e 54 81
e 54 88
e 54 95
e 54 106
e 54 120
e 54 159
e 54 167
e 54 169
e 54 189
e 54 196
e 54 212
e 55 64
e 55 71
e 55 72
e 55 95
e 55 116
e 55 121
e 55 140
e 55 165
e 55 181
e 55 183
e 55 188
e 55 194
e 55 200
e 55 219
e 55 220
e 55 237
e 56 66
e 56 85
e 56 86
e 56 88
e 56 95
e 56 99
e 56 127
e 56 131
e 56 132
e 56 136
e 56 137
e 56 141
e 56 159
e 56 166
e 56 192
e 56 199
e 56 205
e 56 211
e 56 218
e 56 222
e 56 225
e 57 67
e 57 73
e 57 74
e 57 90
e 57 92
e 57 97
e 57 126
e 57 140
e 57 148
e 57 152
e 57 160
e 57 187
e 57 189
e 57 197
e 57 204
e 57 213
e 57 228
e 57 229
e 57 233
e 57 244
e 58 80
e 58 81
e 58 83
e 58 84
e 58 91
e 58 110
e 58 113
e 58 130
e 58 146
e 58 147
e 58 148
e 58 158
e 58 160
e 58 168
e 58 169
e 58 192
e 58 210
e 58 217
e 58 224
e 58 228
e 58 231
e 58 246
e 59 62
e 59 88
e 59 97
e 59 107
e 59 123
e 59 143
e 59 144
e 59 145
e 59 152
e 59 162
e 59 164
e 59 174
e 59 178
e 59 179
e 59 180
e 59 202
e 59 213
e 59 241
e 59 244
e 60 68
e 60 69
e 60 85
e 60 90
e 60 94
e 60 101
e 60 107
e 60 110
e 60 124
e 60 147
e 60 156
e 60 158
e 60 170
e 60 174
e 60 193
e 60 215
e 60 217
e 60 219
e 60 237
e 60 240
e 60 248
e 61 73
e 61 103
e 61 108
e 61 123
e 61 126
e 61 128
e 61 140
e 61 155
e 61 165
e 61 170
e 61 172
e 61 193
e 61 228
e 61 229
e 62 78
e 62 80
e 62 88
e 62 112
e 62 114
e 62 123
e 62 125
e 62 131
e 62 134
e 62 142
e 62 143
e 62 153
e 62 156
e 62 166
e 62 184
e 62 191
e 62 203
e 62 208
e 62 209
e 62 217
e 62 223
e 62 244
e 63 72
e 63 95
e 63 112
e 63 125
e 63 140
e 63 200
e 63 204
e 63 205
e 63 209
e 63 213
e 63 214
e 63 236
e 63 242
e 63 248
e 63 249
e 64 66
e 64 73
e 64 99
e 64 103
e 64 114
e 64 115
e 64 122
e 64 132
e 64 152
e 64 157
e 64 173
e 64 185
e 64 203
e 64 209
e 64 212
e 64 228
e 64 230
e 64 231
e 64 233
e 64 239
e 64 247
e 65 101
e 65 106
e 65 116
e 65 118
e 65 125
e 65 150
e 65 151
e 65 187
e 65 215
e 65 226
e 65 228
e 65 231
e 65 247
e 66 68
e 66 72
e 66 84
e 66 94
e 66 99
e 66 127
e 66 133
e 66 145
e 66 150
e 66 154
e 66 157
e 67 68
e 67 72
e 67 76
e 67 80
e 67 86
e 67 110
e 67 114
e 67 124
e 67 134
e 67 137
e 67 158
e 67 159
e 67 161
e 67 167
e 67 170
e 67 187
e 67 198
e 67 203
e 67 206
e 67 210
e 67 215
e 67 216
e 67 221
e 67 231
e 67 234
e 67 239
e 67 242
e 67 244
e 68 74
e 68 76
e 68 78
e 68 85
e 68 95
e 68 104
e 68 106
e 68 110
e 68 113
e 68 115
e 68 118
e 68 134
e 68 140
e 68 144
e 68 163
e 68 168
e 68 186
e 68 187
e 68 197
e 68 200
e 68 203
e 68 207
e 68 223
e 68 225
e 68 228
e 68 229
e 68 233
e 68 240
e 68 244
e 69 74
e 69 84
e 69 91
e 69 101
e 69 112
e 69 141
e 69 145
e 69 154
e 69 155
e 69 157
e 69 179
e 69 196
e 69 211
e 69 235
e 69 243
e 69 245
e 69 246
e 70 73
e 70 76
e 70 86
e 70 102
e 70 105
e 70 120
e 70 159
e 70 167
e 70 197
e 70 200
e 70 208
e 70 236
e 70 237
e 70 243
e 70 249
e 71 72
e 71 78
e 71 81
e 71 83
e 71 95
e 71 114
e 71 140
e 71 159
e 71 168
e 71 172
e 71 174
e 71 177
e 71 185
e 71 188
e 71 194
e 71 195
e 71 196
e 71 207
e 71 208
e 71 219
e 71 223
e 71 238
e 71 244
e 72 82
e 72 95
e 72 100
e 72 119
e 72 123
e 72 126
e 72 131
e 72 133
e 72 161
e 72 166
e 72 169
e 72 172
e 72 185
e 72 190
e 72 208
e 72 225
e 72 237
e 72 246
e 73 95
e 73 98
e 73 105
e 73 106
e 73 115
e 73 118
e 73 119
e 73 121
e 73 132
e 73 133
e 73 135
e 73 140
e 73 146
e 73 149
e 73 150
e 73 158
e 73 165
e 73 178
e 73 181
e 73 184
e 73 206
e 73 215
e 73 227
e 73 246
e 74 80
e 74 133
e 74 149
e 74 157
e 74 159
e 74 188
e 74 193
e 74 204
e 74 205
e 74 210
e 74 212
e 74 228
e 74 234
e 74 240
e 75 87
e 75 101
e 75 107
e 75 148
e 75 150
e 75 156
e 75 165
e 75 188
e 75 197
e 75 208
e 75 227
e 75 246
e 76 77
e 76 80
e 76 116
e 76 120
e 76 121
e 76 136
e 76 154
e 76 165
e 76 168
e 76 174
e 76 195
e 76 200
e 76 201
e 76 209
e 76 226
e 76 228
e 76 236
e 76 237
e 77 94
e 77 99
e 77 127
e 77 129
e 77 133
e 77 152
e 77 154
e 77 160
e 77 163
e 77 168
e 77 169
e 77 170
e 77 177
e 77 184
e 77 190
e 77 202
e 77 209
e 77 215
e 77 220
e 77 223
e 78 83
e 78 91
e 78 96
e 78 105
e 78 119
e 78 121
e 78 128
e 78 139
e 78 141
e 78 145
e 78 146
e 78 147
e 78 150
e 78 153
e 78 160
e 78 178
e 78 188
e 78 189
e 78 192
e 78 198
e 78 202
e 78 213
e 78 215
e 78 218
e 78 222
e 78 241
e 79 98
e 79 113
e 79 114
e 79 122
e 79 127
e 79 151
e 79 156
e 79 169
e 79 181
e 79 189
e 79 193
e 79 205
e 79 207
e 79 249
e 80 96
e 80 110
e 80 114
e 80 121
e 80 127
e 80 129
e 80 132
e 80 137
e 80 150
e 80 159
e 80 164
e 80 170
e 80 173
e 80 178
e 80 183
e 80 184
e 80 202
e 80 228
e 80 231
e 81 92
e 81 97
e 81 99
e 81 104
e 81 112
e 81 118
e 81 120
e 81 125
e 81 168
e 81 170
e 81 171
e 81 173
e 81 181
e 81 185
e 81 214
e 81 223
e 81 233
e 81 234
e 81 240
e 81 246
e 82 98
e 82 104
e 82 140
e 82 145
e 82 156
e 82 164
e 82 173
e 82 192
e 82 208
e 82 213
e 82 217
e 82 219
e 82 235
e 82 238
e 82 244
e 82 245
e 82 249
e 83 94
e 83 110
e 83 123
e 83 125
e 83 145
e 83 150
e 83 168
e 83 170
e 83 180
e 83 185
e 83 193
e 83 206
e 83 211
e 83 231
e 83 233
e 83 238
e 84 87
e 84 90
e 84 115
e 84 120
e 84 145
e 84 153
e 84 163
e 84 165
e 84 173
e 84 181
e 84 205
e 84 227
e 84 246
e 85 118
e 85 121
e 85 153
e 85 156
e 85 160
e 85 185
e 85 189
e 85 194
e 85 210
e 85 218
e 85 233
e 85 236
e 85 246
e 85 247
e 85 249
e 86 107
e 86 112
e 86 115
e 86 126
e 86 139
e 86 157
e 86 177
e 86 184
e 86 204
e 86 217
e 86 225
e 86 238
e 86 243
e 87 93
e 87 94
e 87 96
e 87 105
e 87 141
e 87 145
e 87 150
e 87 152
e 87 163
e 87 175
e 87 180
e 87 182
e 87 187
e 87 212
e 87 234
e 87 240
e 87 246
e 87 248
e 88 100
e 88 108
e 88 115
e 88 124
e 88 144
e 88 145
e 88 153
e 88 158
e 88 159
e 88 164
e 88 168
e 88 174
e 88 184
e 88 230
e 88 233
e 88 234
e 89 104
e 89 108
e 89 112
e 89 119
e 89 128
e 89 147
e 89 159
e 89 162
e 89 186
e 89 204
e 89 229
e 89 240
e 90 95
e 90 109
e 90 112
e 90 118
e 90 124
e 90 129
e 90 143
e 90 145
e 90 155
e 90 204
e 90 213
e 90 216
e 90 225
e 91 96
e 91 99
e 91 116
e 91 119
e 91 123
e 91 127
e 91 143
e 91 145
e 91 146
e 91 153
e 91 178
e 91 185
e 91 191
e 91 193
e 91 231
e 92 93
e 92 107
e 92 114
e 92 123
e 92 126
e 92 129
e 92 133
e 92 135
e 92 144
e 92 151
e 92 152
e 92 161
e 92 168
e 92 171
e 92 183
e 92 189
e 92 198
e 92 203
e 92 209
e 92 212
e 92 224
e 92 235
e 93 116
e 93 120
e 93 121
e 93 134
e 93 137
e 93 162
e 93 170
e 93 178
e 93 188
e 93 196
e 93 199
e 93 209
e 93 211
e 93 218
e 93 224
e 93 229
e 93 232
e 93 235
e 93 238
e 93 240
e 93 247
e 94 128
e 94 131
e 94 135
e 94 140
e 94 147
e 94 150
e 94 153
e 94 159
e 94 165
e 94 177
e 94 201
e 94 213
e 94 237
e 94 242
e 94 248
e 94 249
e 95 113
e 95 141
e 95 165
e 95 173
e 95 174
e 95 190
e 95 201
e 95 218
e 95 222
e 95 242
e 95 245
e 96 103
e 96 117
e 96 138
e 96 143
e 96 148
e 96 159
e 96 165
e 96 169
e 96 179
e 96 182
e 96 196
e 96 198
e 96 211
e 96 219
e 96 225
e 96 226
e 96 227
e 96 232
e 96 238
e 96 248
e 97 122
e 97 123
e 97 140
e 97 158
e 97 161
e 97 164
e 97 179
e 97 182
e 97 205
e 97 212
e 97 214
e 97 219
e 97 228
e 97 230
e 97 231
e 97 234
e 98 105
e 98 128
e 98 139
e 98 154
e 98 159
e 98 162
e 98 164
e 98 179
e 98 185
e 98 203
e 98 208
e 98 209
e 98 210
e 98 227
e 98 247
e 99 102
e 99 113
e 99 117
e 99 128
e 99 131
e 99 140
e 99 198
e 99 199
e 99 212
e 99 213
e 99 224
e 99 226
e 99 232
e 99 236
e 99 241
e 99 248
e 100 112
e 100 113
e 100 124
e 100 151
e 100 159
e 100 166
e 100 167
e 100 171
e 100 174
e 100 177
e 100 204
e 100 221
e 100 234
e 100 235
e 100 237
e 100 241
e 100 249
e 101 104
e 101 122
e 101 124
e 101 129
e 101 138
e 101 155
e 101 173
e 101 196
e 101 200
e 101 215
e 101 220
e 101 225
e 101 241
e 102 109
e 102 116
e 102 128
e 102 132
e 102 150
e 102 156
e 102 158
e 102 161
e 102 165
e 102 169
e 102 170
e 102 186
e 102 188
e 102 198
e 102 216
e 102 227
e 102 236
e 103 107
e 103 115
e 103 130
e 103 173
e 103 186
e 103 189
e 103 210
e 103 213
e 103 223
e 103 226
e 103 231
e 103 233
e 103 235
e 103 241
e 104 108
e 104 117
e 104 133
e 104 152
e 104 176
e 104 184
e 104 185
e 104 187
e 104 199
e 104 203
e 104 205
e 104 221
e 104 222
e 104 229
e 104 237
e 104 246
e 105 109
e 105 141
e 105 155
e 105 172
e 105 176
e 105 177
e 105 190
e 105 192
e 105 199
e 105 206
e 105 207
e 105 226
e 105 236
e 105 239
e 105 241
e 106 112
e 106 132
e 106 140
e 106 182
e 106 217
e 106 226
e 106 228
e 106 231
e 106 234
e 106 239
e 107 131
e 107 156
e 107 166
e 107 174
e 107 203
e 107 213
e 107 215
e 107 216
e 107 231
e 107 241
e 107 242
e 108 115
e 108 117
e 108 118
e 108 122
e 108 131
e 108 133
e 108 166
e 108 178
e 108 199
e 108 215
e 108 228
e 108 229
e 108 233
e 108 236
e 108 244
e 109 114
e 109 133
e 109 153
e 109 157
e 109 173
e 109 175
e 109 194
e 109 199
e 109 213
e 109 219
e 109 221
e 109 232
e 110 111
e 110 124
e 110 130
e 110 137
e 110 154
e 110 178
e 110 183
e 110 190
e 110 192
e 110 200
e 110 201
e 110 221
e 110 232
e 110 235
e 110 246
e 111 114
e 111 139
e 111 150
e 111 153
e 111 155
e 111 160
e 111 166
e 111 184
e 111 185
e 111 196
e 111 201
e 111 208
e 111 236
e 112 115
e 112 129
e 112 132
e 112 136
e 112 141
e 112 156
e 112 180
e 112 186
e 112 216
e 112 221
e 112 237
e 112 247
e 113 124
e 113 128
e 113 142
e 113 158
e 113 160
e 113 166
e 113 169
e 113 183
e 113 185
e 113 216
e 113 246
e 114 128
e 114 139
e 114 143
e 114 151
e 114 169
e 114 171
e 114 175
e 114 187
e 114 188
e 114 199
e 114 203
e 114 204
e 114 238
e 115 118
e 115 124
e 115 132
e 115 160
e 115 166
e 115 180
e 115 181
e 115 205
e 115 215
e 115 225
e 115 248
e 116 118
e 116 119
e 116 125
e 116 127
e 116 144
e 116 158
e 116 176
e 116 183
e 116 200
e 116 236
e 116 238
e 116 246
e 117 124
e 117 131
e 117 143
e 117 154
e 117 157
e 117 181
e 117 186
e 117 189
e 117 190
e 117 191
e 117 202
e 117 214
e 117 239
e 118 132
e 118 138
e 118 143
e 118 154
e 118 159
e 118 188
e 118 195
e 118 217
e 118 224
e 118 237
e 119 126
e 119 137
e 119 138
e 119 142
e 119 147
e 119 157
e 119 181
e 119 185
e 119 186
e 119 205
e 119 207
e 119 220
e 119 223
e 119 241
e 120 131
e 120 146
e 120 162
e 120 168
e 120 171
e 120 176
e 120 177
e 120 186
e 120 192
e 120 197
e 120 201
e 120 206
e 120 219
e 121 125
e 121 130
e 121 131
e 121 145
e 121 152
e 121 176
e 121 189
e 121 191
e 121 205
e 121 237
e 121 240
e 121 244
e 121 247
e 122 133
e 122 136
e 122 151
e 122 164
e 122 167
e 122 170
e 122 173
e 122 178
e 122 182
e 122 185
e 122 192
e 122 195
e 122 208
e 122 219
e 122 233
e 123 125
e 123 130
e 123 143
e 123 144
e 123 149
e 123 162
e 123 163
e 123 169
e 123 174
e 123 175
e 123 193
e 123 194
e 123 199
e 123 210
e 123 211
e 123 218
e 123 227
e 123 237
e 123 249
e 124 130
e 124 141
e 124 157
e 124 179
e 124 187
e 124 189
e 124 195
e 124 198
e 124 208
e 124 216
e 124 223
e 124 227
e 124 234
e 124 243
e 124 245
e 125 128
e 125 131
e 125 133
e 125 135
e 125 137
e 125 199
e 125 201
e 125 212
e 125 214
e 125 221
e 125 235
e 125 237
e 125 238
e 126 130
e 126 142
e 126 160
e 126 176
e 126 177
e 126 188
e 126 216
e 126 217
e 126 222
e 126 226
e 126 230
e 126 234
e 126 236
e 127 134
e 127 157
e 127 158
e 127 159
e 127 167
e 127 172
e 127 186
e 127 187
e 127 192
e 127 194
e 127 204
e 127 211
e 127 215
e 127 217
e 127 228
e 127 235
e 127 247
e 127 249
e 128 136
e 128 166
e 128 175
e 128 187
e 128 216
e 128 223
e 129 133
e 129 152
e 129 169
e 129 171
e 129 183
e 129 201
e 129 208
e 129 209
e 129 223
e 129 229
e 129 235
e 129 242
e 129 244
e 130 134
e 130 148
e 130 159
e 130 164
e 130 170
e 130 172
e 130 175
e 130 179
e 130 199
e 130 206
e 130 207
e 130 208
e 130 224
e 130 249
e 131 149
e 131 160
e 131 165
e 131 183
e 131 186
e 131 195
e 131 204
e 131 215
e 131 223
e 131 235
e 131 239
e 132 134
e 132 146
e 132 154
e 132 155
e 132 194
e 132 206
e 132 212
e 132 233
e 132 241
e 132 247
e 133 135
e 133 144
e 133 175
e 133 196
e 133 203
e 133 211
e 133 223
e 133 234
e 133 236
e 133 237
e 133 248
e 134 143
e 134 147
e 134 151
e 134 154
e 134 159
e 134 170
e 134 179
e 134 189
e 134 218
e 134 219
e 134 233
e 134 248
e 135 137
e 135 138
e 135 148
e 135 151
e 135 159
e 135 163
e 135 166
e 135 174
e 135 205
e 135 230
e 135 235
e 135 246
e 136 142
e 136 147
e 136 152
e 136 155
e 136 164
e 136 169
e 136 170
e 136 187
e 136 188
e 136 198
e 136 199
e 136 208
e 136 219
e 136 221
e 136 222
e 136 223
e 136 241
e 137 161
e 137 163
e 137 191
e 137 200
e 137 218
e 137 236
e 138 147
e 138 154
e 138 155
e 138 159
e 138 179
e 138 211
e 138 214
e 138 237
e 138 245
e 138 248
e 139 169
e 139 196
e 139 200
e 139 237
e 140 142
e 140 161
e 140 168
e 140 170
e 140 171
e 140 173
e 140 183
e 140 200
e 140 201
e 140 207
e 140 221
e 140 230
e 140 234
e 140 241
e 141 153
e 141 154
e 141 177
e 141 180
e 141 188
e 141 194
e 141 196
e 141 200
e 141 206
e 141 224
e 141 241
e 141 242
e 142 156
e 142 158
e 142 164
e 142 166
e 142 172
e 142 173
e 142 185
e 142 213
e 142 222
e 142 235
e 142 241
e 142 245
e 143 146
e 143 153
e 143 154
e 143 156
e 143 168
e 143 171
e 143 178
e 143 191
e 143 205
e 143 211
e 143 214
e 143 228
e 143 231
e 143 235
e 144 156
e 144 160
e 144 209
e 144 219
e 145 164
e 145 168
e 145 187
e 145 199
e 145 231
e 145 233
e 145 237
e 145 238
e 145 248
e 146 154
e 146 166
e 146 169
e 146 176
e 146 193
e 146 196
e 146 200
e 146 202
e 146 205
e 146 235
e 147 159
e 147 169
e 147 183
e 147 221
e 147 227
e 147 246
e 148 149
e 148 150
e 148 151
e 148 157
e 148 161
e 148 163
e 148 166
e 148 168
e 148 173
e 148 174
e 148 177
e 148 208
e 148 214
e 148 235
e 148 236
e 148 239
e 149 166
e 149 176
e 149 180
e 149 191
e 149 224
e 149 228
e 149 243
e 150 173
e 150 174
e 150 180
e 150 181
e 150 185
e 150 227
e 150 230
e 150 231
e 150 232
e 151 153
e 151 158
e 151 159
e 151 188
e 151 212
e 151 220
e 151 226
e 151 237
e 151 239
e 151 240
e 151 246
e 152 156
e 152 158
e 152 163
e 152 164
e 152 168
e 152 176
e 152 177
e 152 186
e 152 191
e 152 199
e 152 207
e 152 208
e 152 218
e 152 219
e 152 222
e 152 226
e 152 239
e 153 167
e 153 177
e 153 189
e 153 198
e 153 201
e 153 207
e 153 224
e 153 236
e 154 156
e 154 163
e 154 167
e 154 170
e 154 173
e 154 194
e 154 220
e 154 223
e 154 225
e 154 236
e 155 178
e 155 179
e 155 184
e 155 187
e 155 204
e 155 207
e 155 238
e 156 159
e 156 161
e 156 162
e 156 179
e 156 181
e 156 197
e 156 213
e 157 162
e 157 166
e 157 190
e 157 213
e 157 219
e 157 227
e 157 229
e 157 241
e 157 242
e 157 247
e 157 248
e 158 179
e 158 194
e 158 198
e 158 213
e 158 216
e 158 233
e 158 241
e 158 243
e 159 160
e 159 162
e 159 169
e 159 173
e 159 187
e 159 189
e 159 203
e 159 204
e 159 209
e 159 224
e 159 238
e 159 246
e 160 162
e 160 170
e 160 184
e 160 186
e 160 207
e 160 208
e 160 217
e 160 230
e 160 234
e 160 237
e 160 240
e 160 248
e 161 166
e 161 178
e 161 189
e 161 191
e 161 208
e 161 210
e 161 220
e 161 221
e 161 227
e 161 234
e 161 236
e 161 246
e 161 249
e 162 167
e 162 209
e 162 214
e 162 215
e 162 226
e 162 230
e 163 168
e 163 174
e 163 198
e 163 201
e 163 203
e 163 209
e 163 211
e 163 213
e 163 221
e 163 232
e 163 237
e 163 249
e 164 173
e 164 175
e 164 182
e 164 195
e 164 198
e 164 209
e 164 211
e 164 220
e 164 244
e 165 166
e 165 174
e 165 178
e 165 181
e 165 186
e 165 188
e 165 233
e 165 245
e 166 173
e 166 178
e 166 181
e 166 184
e 166 193
e 166 210
e 166 222
e 166 230
e 166 244
e 167 181
e 167 188
e 167 195
e 167 210
e 167 215
e 167 220
e 167 224
e 167 227
e 167 231
e 167 238
e 168 188
e 168 213
e 168 223
e 168 228
e 168 240
e 168 245
e 169 171
e 169 183
e 169 196
e 169 208
e 169 212
e 169 223
e 169 237
e 169 239
e 169 245
e 170 177
e 170 181
e 170 187
e 170 200
e 170 212
e 170 213
e 170 218
e 170 226
e 170 227
e 170 230
e 170 246
e 171 174
e 171 195
e 171 197
e 171 207
e 171 221
e 171 227
e 171 234
e 171 236
e 172 182
e 172 193
e 172 196
e 172 201
e 172 227
e 172 242
e 173 175
e 173 177
e 173 180
e 173 185
e 173 189
e 173 200
e 173 210
e 173 212
e 173 216
e 173 219
e 173 223
e 173 237
e 174 180
e 174 200
e 174 223
e 174 224
e 174 225
e 174 233
e 175 182
e 175 188
e 175 189
e 175 197
e 175 202
e 175 206
e 175 234
e 175 249
e 176 212
e 176 215
e 176 226
e 176 236
e 177 197
e 177 198
e 177 206
e 177 211
e 177 227
e 177 239
e 178 210
e 178 211
e 178 213
e 178 232
e 178 235
e 178 237
e 179 180
e 179 186
e 179 193
e 179 209
e 179 218
e 179 226
e 179 230
e 179 242
e 180 191
e 180 199
e 180 204
e 180 217
e 180 219
e 180 226
e 180 235
e 180 246
e 181 190
e 181 196
e 181 210
e 181 228
e 181 235
e 181 245
e 182 185
e 182 212
e 182 215
e 182 220
e 182 225
e 182 230
e 182 242
e 182 243
e 182 244
e 183 210
e 183 215
e 183 217
e 183 229
e 183 230
e 183 239
e 184 190
e 184 210
e 184 217
e 184 226
e 184 245
e 185 198
e 185 210
e 185 213
e 185 215
e 185 229
e 185 232
e 185 235
e 185 246
e 186 191
e 186 194
e 186 198
e 186 204
e 186 210
e 186 218
e 186 225
e 186 245
e 187 190
e 187 195
e 187 213
e 187 214
e 187 217
e 187 227
e 187 234
e 187 242
e 188 189
e 188 193
e 188 209
e 188 213
e 188 230
e 188 233
e 188 246
e 188 249
e 189 194
e 189 203
e 189 206
e 189 230
e 189 244
e 190 194
e 190 195
e 190 201
e 190 229
e 190 234
e 190 235
e 190 238
e 190 239
e 190 245
e 190 247
e 191 196
e 191 207
e 191 213
e 191 228
e 191 236
e 191 238
e 191 241
e 192 202
e 192 221
e 192 223
e 192 233
e 193 201
e 193 203
e 193 208
e 193 216
e 193 221
e 193 233
e 193 248
e 194 198
e 194 216
e 194 219
e 194 221
e 194 228
e 194 236
e 195 212
e 196 219
e 196 237
e 197 199
e 197 200
e 197 210
e 197 221
e 197 225
e 197 232
e 197 236
e 198 215
e 198 222
e 198 224
e 198 228
e 198 229
e 199 245
e 200 209
e 200 219
e 200 221
e 200 225
e 200 228
e 201 207
e 201 231
e 201 246
e 202 203
e 202 214
e 202 215
e 202 222
e 202 225
e 202 230
e 202 233
e 202 243
e 202 244
e 203 211
e 203 219
e 203 222
e 203 231
e 203 234
e 203 244
e 204 208
e 204 226
e 205 222
e 205 225
e 205 242
e 206 214
e 206 215
e 206 238
e 206 244
e 207 211
e 207 216
e 207 229
e 208 209
e 208 219
e 208 227
e 208 229
e 208 236
e 208 241
e 208 246
e 208 248
e 209 215
e 209 226
e 209 229
e 209 230
e 209 231
e 209 249
e 210 219
e 210 220
e 210 221
e 210 240
e 210 243
e 211 219
e 211 228
e 211 237
e 211 245
e 212 237
e 213 218
e 213 226
e 213 233
e 213 237
e 214 215
e 215 216
e 216 239
e 217 221
e 217 222
e 217 229
e 217 233
e 217 234
e 217 236
e 217 244
e 218 240
e 219 228
e 219 249
e 220 234
e 221 222
e 222 228
e 222 243
e 222 244
e 223 243
e 224 227
e 224 229
e 225 236
e 226 228
e 227 229
e 228 240
e 228 244
e 228 247
e 230 231
e 230 232
e 230 236
e 230 247
e 231 243
e 232 234
e 232 248
e 233 241
e 234 239
e 234 241
e 238 240
e 238 244
e 240 247
e 240 248
e 241 242
e 242 245
e 243 247
e 243 248
e 245 248
e 248 249
